5
1012.80 997.20 854.40  979.20
567.60 606.00 1014.00  490.80
697.20 495.60 1100.40  973.20
982.80 686.40 836.40  288.00
895.20 824.40 679.20  787.20
10
618 17 773  277 296
99 492 205  240 114
527 728 729  259 52
180 110 427  268 178
782 175 289  181 261
39 686 741  84 80
711 232 749  25 299
431 96 323  41 152
138 119 738  30 97
94 751 627  257 172
